# Solution for model GasLib-40
# Objective value = 7.6818400036284771e+01
loadshed[innode_1] 0
loadshed[innode_2] 0
loadshed[innode_3] 0
loadshed[innode_4] 0
loadshed[innode_5] 0
loadshed[innode_6] 0
loadshed[innode_7] 0
loadshed[innode_8] 0
loadshed[source_1] 1.9484541784081655e-02
loadshed[source_2] 1.6869908804730971e-01
loadshed[source_3] 2.9773113429002473e-01
loadshed[sink_1] 1
loadshed[sink_2] 0
loadshed[sink_3] 0
loadshed[sink_4] 0
loadshed[sink_5] 0
loadshed[sink_6] 0
loadshed[sink_7] 0
loadshed[sink_8] 0
loadshed[sink_9] 0
loadshed[sink_10] 0
loadshed[sink_11] 0
loadshed[sink_12] 1
loadshed[sink_13] 0
loadshed[sink_14] 0
loadshed[sink_15] 0
loadshed[sink_16] 0
loadshed[sink_17] 0
loadshed[sink_18] 0
loadshed[sink_19] 0
loadshed[sink_20] 0
loadshed[sink_21] 1
loadshed[sink_22] 7.2026842101399613e-01
loadshed[sink_23] 0
loadshed[sink_24] 9.7690763216010379e-01
loadshed[sink_25] 0
loadshed[sink_26] 0
loadshed[sink_27] 0
loadshed[sink_28] 0
loadshed[sink_29] 0
flow[source_1,sink_3] 1.5500996115475959e+02
flow[innode_1,sink_16] 1.6354166666666970e+01
flow[innode_6,sink_13] 3.4572866118921155e+00
flow[sink_13,sink_14] -1.2896880054774552e+01
flow[sink_14,sink_10] -2.9251046721441220e+01
flow[sink_25,sink_26] 0
flow[sink_26,sink_9] 3.2708333333334551e+01
flow[sink_9,sink_18] 1.6354166666667879e+01
flow[sink_26,sink_4] -4.9062500000001215e+01
flow[sink_4,sink_20] -1.5213993329705150e+02
flow[sink_18,sink_6] 0
flow[sink_25,innode_8] -1.2230162782142324e+02
flow[sink_6,sink_7] -2.0928943531333609e+01
flow[sink_6,sink_22] 4.5747768646669389e+00
flow[sink_7,sink_24] 3.7765643238163760e-01
flow[sink_22,sink_1] 0
flow[sink_24,sink_21] 0
flow[sink_21,sink_12] 0
flow[sink_7,sink_5] -3.7660766630381907e+01
flow[sink_5,sink_17] -5.4014933297048572e+01
flow[sink_17,sink_4] -8.6723266630383577e+01
flow[sink_17,sink_8] 1.6354166666668334e+01
flow[sink_3,sink_23] 16.3541666666697
flow[sink_8,sink_20] 0
flow[sink_25,sink_20] 1.6849409996371816e+02
flow[sink_25,sink_15] -6.6003925420853520e+01
flow[sink_15,sink_29] -4.7836237112856189e+01
flow[sink_29,sink_28] 1.6354166666667879e+01
flow[sink_29,sink_2] 5.0876021641330638e+01
flow[sink_2,sink_15] 3.4521854974663974e+01
flow[sink_29,innode_7] -1.3142059208752079e+02
flow[innode_4,sink_19] 4.2697477012952980e+01
flow[sink_19,innode_3] 3.8216680238762130e+01
flow[innode_4,innode_5] 6.8324403041821910e+01
flow[sink_27,innode_5] -6.8324403041821910e+01
flow[sink_27,sink_19] 5.1970236375155245e+01
flow[sink_10,sink_11] 3.2708333333333641e+01
flow[sink_10,innode_2] -4.0096866482679395e+01
flow[sink_10,innode_3] -3.8216680238762130e+01
flow[innode_6,sink_25] -3.4572866118921155e+00
flow[sink_11,innode_1] 1.6354166666666970e+01
flow[sink_19,innode_2] 4.0096866482679395e+01
flow[source_3,innode_4] 1.1102188005477490e+02
flow[source_2,innode_7] 1.3142059208752079e+02
flow[sink_3,innode_8] 1.2230162782142324e+02
pressure[innode_1] 77.0124801057183
pressure[innode_2] 7.9283466412413773e+01
pressure[innode_3] 7.9198839901594610e+01
pressure[innode_4] 81.01325
pressure[innode_5] 80.9662528728309
pressure[innode_6] 7.5776627354033735e+01
pressure[innode_7] 81.01325
pressure[innode_8] 8.0495110915811139e+01
pressure[source_1] 81.01325
pressure[source_2] 81.01325
pressure[source_3] 81.01325
pressure[sink_1] 1.01325
pressure[sink_2] 7.6209516955988960e+01
pressure[sink_3] 8.0495110915811139e+01
pressure[sink_4] 2.4446456198368391e+01
pressure[sink_5] 1.7108456809409191e+01
pressure[sink_6] 1.1583339678291216e+00
pressure[sink_7] 1.4456384754634237e+00
pressure[sink_8] 2.0515093713473771e+01
pressure[sink_9] 1.6250844801065050e+01
pressure[sink_10] 7.7164181413321842e+01
pressure[sink_11] 77.0124801057183
pressure[sink_12] 1.01325
pressure[sink_13] 7.5757567910708644e+01
pressure[sink_14] 7.5780647976137928e+01
pressure[sink_15] 7.6096810707990969e+01
pressure[sink_16] 7.5990830270900616e+01
pressure[sink_17] 2.1132178908887397e+01
pressure[sink_18] 1.5659102307265346e+01
pressure[sink_19] 7.9283466412413773e+01
pressure[sink_20] 3.5608149117121258e+01
pressure[sink_21] 1.01325
pressure[sink_22] 1.01325
pressure[sink_23] 8.0330392904151353e+01
pressure[sink_24] 1.01325
pressure[sink_25] 7.5776627354033735e+01
pressure[sink_26] 1.8208522968949655e+01
pressure[sink_27] 80.3992865775057
pressure[sink_28] 7.7202981727619644e+01
pressure[sink_29] 7.7498264001236819e+01
interdiction[source_1,sink_3] 0
interdiction[innode_1,sink_16] 0
interdiction[innode_6,sink_13] 0
interdiction[sink_13,sink_14] 0
interdiction[sink_14,sink_10] 0
interdiction[sink_25,sink_26] 1
interdiction[sink_26,sink_9] 0
interdiction[sink_9,sink_18] 0
interdiction[sink_26,sink_4] 0
interdiction[sink_4,sink_20] 0
interdiction[sink_18,sink_6] 1
interdiction[sink_25,innode_8] 0
interdiction[sink_6,sink_7] 0
interdiction[sink_6,sink_22] 0
interdiction[sink_7,sink_24] 0
interdiction[sink_22,sink_1] 0
interdiction[sink_24,sink_21] 0
interdiction[sink_21,sink_12] 0
interdiction[sink_7,sink_5] 0
interdiction[sink_5,sink_17] 0
interdiction[sink_17,sink_4] 0
interdiction[sink_17,sink_8] 0
interdiction[sink_3,sink_23] 0
interdiction[sink_8,sink_20] 1
interdiction[sink_25,sink_20] 0
interdiction[sink_25,sink_15] 0
interdiction[sink_15,sink_29] 0
interdiction[sink_29,sink_28] 0
interdiction[sink_29,sink_2] 0
interdiction[sink_2,sink_15] 0
interdiction[sink_29,innode_7] 0
interdiction[innode_4,sink_19] 0
interdiction[sink_19,innode_3] 0
interdiction[innode_4,innode_5] 0
interdiction[sink_27,innode_5] 0
interdiction[sink_27,sink_19] 0
interdiction[sink_10,sink_11] 0
interdiction[sink_10,innode_2] 0
interdiction[sink_10,innode_3] 0
interdiction[innode_6,sink_25] 0
interdiction[sink_11,innode_1] 0
interdiction[sink_19,innode_2] 0
interdiction[source_3,innode_4] 0
interdiction[source_2,innode_7] 0
interdiction[sink_3,innode_8] 0
WCcheckFlow[source_1,sink_3] 39
WCcheckFlow[innode_1,sink_16] 1
WCcheckFlow[innode_6,sink_13] 13
WCcheckFlow[sink_13,sink_14] 12
WCcheckFlow[sink_14,sink_10] 11
WCcheckFlow[sink_25,sink_26] 0
WCcheckFlow[sink_26,sink_9] 2
WCcheckFlow[sink_9,sink_18] 1
WCcheckFlow[sink_26,sink_4] -3
WCcheckFlow[sink_4,sink_20] -14
WCcheckFlow[sink_18,sink_6] 0
WCcheckFlow[sink_25,innode_8] -36
WCcheckFlow[sink_6,sink_7] -3
WCcheckFlow[sink_6,sink_22] 2
WCcheckFlow[sink_7,sink_24] 3
WCcheckFlow[sink_22,sink_1] 1
WCcheckFlow[sink_24,sink_21] 2
WCcheckFlow[sink_21,sink_12] 1
WCcheckFlow[sink_7,sink_5] -7
WCcheckFlow[sink_5,sink_17] -8
WCcheckFlow[sink_17,sink_4] -10
WCcheckFlow[sink_17,sink_8] 1
WCcheckFlow[sink_3,sink_23] 1
WCcheckFlow[sink_8,sink_20] 0
WCcheckFlow[sink_25,sink_20] 15
WCcheckFlow[sink_25,sink_15] 6
WCcheckFlow[sink_15,sink_29] 5
WCcheckFlow[sink_29,sink_28] 1
WCcheckFlow[sink_29,sink_2] 1
WCcheckFlow[sink_2,sink_15] 0
WCcheckFlow[sink_29,innode_7] 2
WCcheckFlow[innode_4,sink_19] -4
WCcheckFlow[sink_19,innode_3] -5
WCcheckFlow[innode_4,innode_5] 2
WCcheckFlow[sink_27,innode_5] -1
WCcheckFlow[sink_27,sink_19] 0
WCcheckFlow[sink_10,sink_11] 3
WCcheckFlow[sink_10,innode_2] 1
WCcheckFlow[sink_10,innode_3] 6
WCcheckFlow[innode_6,sink_25] -14
WCcheckFlow[sink_11,innode_1] 2
WCcheckFlow[sink_19,innode_2] 0
WCcheckFlow[source_3,innode_4] -1
WCcheckFlow[source_2,innode_7] -1
WCcheckFlow[sink_3,innode_8] 37
